Problem:    
Rows:       26
Columns:    360 (360 integer, 240 binary)
Non-zeros:  480
Status:     INTEGER OPTIMAL
Objective:  Maintenance_costs = 18871 (MINimum)

   No.   Row name        Activity     Lower bound   Upper bound
------ ------------    ------------- ------------- -------------
     1 Anvers_base_supply_during_year_0
                                 545           545             = 
     2 Bruxelles_base_supply_during_year_0
                                 375           375             = 
     3 Charleroi_base_supply_during_year_0
                                 727           727             = 
     4 Gand_base_supply_during_year_0
                                 121           121             = 
     5 Hasselt_base_supply_during_year_0
                                  21            21             = 
     6 Liege_acid_supply_during_year_0
                                1818          1818             = 
     7 Truck_10_time_check_during_year_0
                            0.428571             0               
     8 Truck_11_time_check_during_year_0
                                   0             0               
     9 Truck_12_time_check_during_year_0
                            0.142857             0               
    10 Truck_13_time_check_during_year_0
                                  80             0               
    11 Truck_14_time_check_during_year_0
                            0.714286             0               
    12 Truck_15_time_check_during_year_0
                             2.85714             0               
    13 Truck_16_time_check_during_year_0
                             3.57143             0               
    14 Truck_17_time_check_during_year_0
                             1.28571             0               
    15 Truck_18_time_check_during_year_0
                             2.28571             0               
    16 Truck_19_time_check_during_year_0
                                   0             0               
    17 Truck_1_time_check_during_year_0
                                   0             0               
    18 Truck_20_time_check_during_year_0
                                   0             0               
    19 Truck_2_time_check_during_year_0
                                   0             0               
    20 Truck_3_time_check_during_year_0
                                   0             0               
    21 Truck_4_time_check_during_year_0
                                   0             0               
    22 Truck_5_time_check_during_year_0
                                   0             0               
    23 Truck_6_time_check_during_year_0
                                   0             0               
    24 Truck_7_time_check_during_year_0
                                   0             0               
    25 Truck_8_time_check_during_year_0
                             1.42857             0               
    26 Truck_9_time_check_during_year_0
                             15.7143             0               

   No. Column name       Activity     Lower bound   Upper bound
------ ------------    ------------- ------------- -------------
     1 truck_status_10_0
                    *              1             0             1 
     2 truck_status_10_1
                    *              1             0             1 
     3 truck_status_10_10
                    *              1             0             1 
     4 truck_status_10_11
                    *              1             0             1 
     5 truck_status_10_2
                    *              1             0             1 
     6 truck_status_10_3
                    *              1             0             1 
     7 truck_status_10_4
                    *              1             0             1 
     8 truck_status_10_5
                    *              1             0             1 
     9 truck_status_10_6
                    *              1             0             1 
    10 truck_status_10_7
                    *              1             0             1 
    11 truck_status_10_8
                    *              1             0             1 
    12 truck_status_10_9
                    *              1             0             1 
    13 truck_status_11_0
                    *              1             0             1 
    14 truck_status_11_1
                    *              1             0             1 
    15 truck_status_11_10
                    *              1             0             1 
    16 truck_status_11_11
                    *              1             0             1 
    17 truck_status_11_2
                    *              1             0             1 
    18 truck_status_11_3
                    *              1             0             1 
    19 truck_status_11_4
                    *              1             0             1 
    20 truck_status_11_5
                    *              1             0             1 
    21 truck_status_11_6
                    *              1             0             1 
    22 truck_status_11_7
                    *              1             0             1 
    23 truck_status_11_8
                    *              1             0             1 
    24 truck_status_11_9
                    *              1             0             1 
    25 truck_status_12_0
                    *              1             0             1 
    26 truck_status_12_1
                    *              1             0             1 
    27 truck_status_12_10
                    *              1             0             1 
    28 truck_status_12_11
                    *              1             0             1 
    29 truck_status_12_2
                    *              1             0             1 
    30 truck_status_12_3
                    *              1             0             1 
    31 truck_status_12_4
                    *              1             0             1 
    32 truck_status_12_5
                    *              1             0             1 
    33 truck_status_12_6
                    *              1             0             1 
    34 truck_status_12_7
                    *              1             0             1 
    35 truck_status_12_8
                    *              1             0             1 
    36 truck_status_12_9
                    *              1             0             1 
    37 truck_status_13_0
                    *              0             0             1 
    38 truck_status_13_1
                    *              1             0             1 
    39 truck_status_13_10
                    *              1             0             1 
    40 truck_status_13_11
                    *              1             0             1 
    41 truck_status_13_2
                    *              1             0             1 
    42 truck_status_13_3
                    *              1             0             1 
    43 truck_status_13_4
                    *              1             0             1 
    44 truck_status_13_5
                    *              1             0             1 
    45 truck_status_13_6
                    *              1             0             1 
    46 truck_status_13_7
                    *              1             0             1 
    47 truck_status_13_8
                    *              1             0             1 
    48 truck_status_13_9
                    *              1             0             1 
    49 truck_status_14_0
                    *              1             0             1 
    50 truck_status_14_1
                    *              1             0             1 
    51 truck_status_14_10
                    *              1             0             1 
    52 truck_status_14_11
                    *              1             0             1 
    53 truck_status_14_2
                    *              1             0             1 
    54 truck_status_14_3
                    *              1             0             1 
    55 truck_status_14_4
                    *              1             0             1 
    56 truck_status_14_5
                    *              1             0             1 
    57 truck_status_14_6
                    *              1             0             1 
    58 truck_status_14_7
                    *              1             0             1 
    59 truck_status_14_8
                    *              1             0             1 
    60 truck_status_14_9
                    *              1             0             1 
    61 truck_status_15_0
                    *              1             0             1 
    62 truck_status_15_1
                    *              1             0             1 
    63 truck_status_15_10
                    *              1             0             1 
    64 truck_status_15_11
                    *              1             0             1 
    65 truck_status_15_2
                    *              1             0             1 
    66 truck_status_15_3
                    *              1             0             1 
    67 truck_status_15_4
                    *              1             0             1 
    68 truck_status_15_5
                    *              1             0             1 
    69 truck_status_15_6
                    *              1             0             1 
    70 truck_status_15_7
                    *              1             0             1 
    71 truck_status_15_8
                    *              1             0             1 
    72 truck_status_15_9
                    *              0             0             1 
    73 truck_status_16_0
                    *              1             0             1 
    74 truck_status_16_1
                    *              1             0             1 
    75 truck_status_16_10
                    *              1             0             1 
    76 truck_status_16_11
                    *              1             0             1 
    77 truck_status_16_2
                    *              1             0             1 
    78 truck_status_16_3
                    *              1             0             1 
    79 truck_status_16_4
                    *              1             0             1 
    80 truck_status_16_5
                    *              1             0             1 
    81 truck_status_16_6
                    *              1             0             1 
    82 truck_status_16_7
                    *              1             0             1 
    83 truck_status_16_8
                    *              1             0             1 
    84 truck_status_16_9
                    *              1             0             1 
    85 truck_status_17_0
                    *              0             0             1 
    86 truck_status_17_1
                    *              0             0             1 
    87 truck_status_17_10
                    *              1             0             1 
    88 truck_status_17_11
                    *              1             0             1 
    89 truck_status_17_2
                    *              1             0             1 
    90 truck_status_17_3
                    *              1             0             1 
    91 truck_status_17_4
                    *              1             0             1 
    92 truck_status_17_5
                    *              1             0             1 
    93 truck_status_17_6
                    *              1             0             1 
    94 truck_status_17_7
                    *              1             0             1 
    95 truck_status_17_8
                    *              1             0             1 
    96 truck_status_17_9
                    *              1             0             1 
    97 truck_status_18_0
                    *              1             0             1 
    98 truck_status_18_1
                    *              1             0             1 
    99 truck_status_18_10
                    *              1             0             1 
   100 truck_status_18_11
                    *              1             0             1 
   101 truck_status_18_2
                    *              0             0             1 
   102 truck_status_18_3
                    *              1             0             1 
   103 truck_status_18_4
                    *              0             0             1 
   104 truck_status_18_5
                    *              0             0             1 
   105 truck_status_18_6
                    *              0             0             1 
   106 truck_status_18_7
                    *              0             0             1 
   107 truck_status_18_8
                    *              0             0             1 
   108 truck_status_18_9
                    *              0             0             1 
   109 truck_status_19_0
                    *              0             0             1 
   110 truck_status_19_1
                    *              0             0             1 
   111 truck_status_19_10
                    *              0             0             1 
   112 truck_status_19_11
                    *              0             0             1 
   113 truck_status_19_2
                    *              0             0             1 
   114 truck_status_19_3
                    *              0             0             1 
   115 truck_status_19_4
                    *              0             0             1 
   116 truck_status_19_5
                    *              0             0             1 
   117 truck_status_19_6
                    *              0             0             1 
   118 truck_status_19_7
                    *              0             0             1 
   119 truck_status_19_8
                    *              0             0             1 
   120 truck_status_19_9
                    *              0             0             1 
   121 truck_status_1_0
                    *              0             0             1 
   122 truck_status_1_1
                    *              0             0             1 
   123 truck_status_1_10
                    *              0             0             1 
   124 truck_status_1_11
                    *              0             0             1 
   125 truck_status_1_2
                    *              0             0             1 
   126 truck_status_1_3
                    *              0             0             1 
   127 truck_status_1_4
                    *              0             0             1 
   128 truck_status_1_5
                    *              0             0             1 
   129 truck_status_1_6
                    *              0             0             1 
   130 truck_status_1_7
                    *              0             0             1 
   131 truck_status_1_8
                    *              0             0             1 
   132 truck_status_1_9
                    *              0             0             1 
   133 truck_status_20_0
                    *              0             0             1 
   134 truck_status_20_1
                    *              0             0             1 
   135 truck_status_20_10
                    *              0             0             1 
   136 truck_status_20_11
                    *              0             0             1 
   137 truck_status_20_2
                    *              0             0             1 
   138 truck_status_20_3
                    *              0             0             1 
   139 truck_status_20_4
                    *              0             0             1 
   140 truck_status_20_5
                    *              0             0             1 
   141 truck_status_20_6
                    *              0             0             1 
   142 truck_status_20_7
                    *              0             0             1 
   143 truck_status_20_8
                    *              0             0             1 
   144 truck_status_20_9
                    *              0             0             1 
   145 truck_status_2_0
                    *              0             0             1 
   146 truck_status_2_1
                    *              0             0             1 
   147 truck_status_2_10
                    *              0             0             1 
   148 truck_status_2_11
                    *              0             0             1 
   149 truck_status_2_2
                    *              0             0             1 
   150 truck_status_2_3
                    *              0             0             1 
   151 truck_status_2_4
                    *              0             0             1 
   152 truck_status_2_5
                    *              0             0             1 
   153 truck_status_2_6
                    *              0             0             1 
   154 truck_status_2_7
                    *              0             0             1 
   155 truck_status_2_8
                    *              0             0             1 
   156 truck_status_2_9
                    *              0             0             1 
   157 truck_status_3_0
                    *              0             0             1 
   158 truck_status_3_1
                    *              0             0             1 
   159 truck_status_3_10
                    *              0             0             1 
   160 truck_status_3_11
                    *              0             0             1 
   161 truck_status_3_2
                    *              0             0             1 
   162 truck_status_3_3
                    *              0             0             1 
   163 truck_status_3_4
                    *              0             0             1 
   164 truck_status_3_5
                    *              0             0             1 
   165 truck_status_3_6
                    *              0             0             1 
   166 truck_status_3_7
                    *              0             0             1 
   167 truck_status_3_8
                    *              0             0             1 
   168 truck_status_3_9
                    *              0             0             1 
   169 truck_status_4_0
                    *              0             0             1 
   170 truck_status_4_1
                    *              0             0             1 
   171 truck_status_4_10
                    *              0             0             1 
   172 truck_status_4_11
                    *              0             0             1 
   173 truck_status_4_2
                    *              0             0             1 
   174 truck_status_4_3
                    *              0             0             1 
   175 truck_status_4_4
                    *              0             0             1 
   176 truck_status_4_5
                    *              0             0             1 
   177 truck_status_4_6
                    *              0             0             1 
   178 truck_status_4_7
                    *              0             0             1 
   179 truck_status_4_8
                    *              0             0             1 
   180 truck_status_4_9
                    *              0             0             1 
   181 truck_status_5_0
                    *              0             0             1 
   182 truck_status_5_1
                    *              0             0             1 
   183 truck_status_5_10
                    *              0             0             1 
   184 truck_status_5_11
                    *              0             0             1 
   185 truck_status_5_2
                    *              0             0             1 
   186 truck_status_5_3
                    *              0             0             1 
   187 truck_status_5_4
                    *              0             0             1 
   188 truck_status_5_5
                    *              0             0             1 
   189 truck_status_5_6
                    *              0             0             1 
   190 truck_status_5_7
                    *              0             0             1 
   191 truck_status_5_8
                    *              0             0             1 
   192 truck_status_5_9
                    *              0             0             1 
   193 truck_status_6_0
                    *              0             0             1 
   194 truck_status_6_1
                    *              0             0             1 
   195 truck_status_6_10
                    *              0             0             1 
   196 truck_status_6_11
                    *              0             0             1 
   197 truck_status_6_2
                    *              0             0             1 
   198 truck_status_6_3
                    *              0             0             1 
   199 truck_status_6_4
                    *              0             0             1 
   200 truck_status_6_5
                    *              0             0             1 
   201 truck_status_6_6
                    *              0             0             1 
   202 truck_status_6_7
                    *              0             0             1 
   203 truck_status_6_8
                    *              0             0             1 
   204 truck_status_6_9
                    *              0             0             1 
   205 truck_status_7_0
                    *              0             0             1 
   206 truck_status_7_1
                    *              0             0             1 
   207 truck_status_7_10
                    *              0             0             1 
   208 truck_status_7_11
                    *              0             0             1 
   209 truck_status_7_2
                    *              0             0             1 
   210 truck_status_7_3
                    *              0             0             1 
   211 truck_status_7_4
                    *              0             0             1 
   212 truck_status_7_5
                    *              0             0             1 
   213 truck_status_7_6
                    *              0             0             1 
   214 truck_status_7_7
                    *              0             0             1 
   215 truck_status_7_8
                    *              0             0             1 
   216 truck_status_7_9
                    *              0             0             1 
   217 truck_status_8_0
                    *              0             0             1 
   218 truck_status_8_1
                    *              0             0             1 
   219 truck_status_8_10
                    *              0             0             1 
   220 truck_status_8_11
                    *              0             0             1 
   221 truck_status_8_2
                    *              0             0             1 
   222 truck_status_8_3
                    *              0             0             1 
   223 truck_status_8_4
                    *              1             0             1 
   224 truck_status_8_5
                    *              1             0             1 
   225 truck_status_8_6
                    *              1             0             1 
   226 truck_status_8_7
                    *              0             0             1 
   227 truck_status_8_8
                    *              0             0             1 
   228 truck_status_8_9
                    *              1             0             1 
   229 truck_status_9_0
                    *              1             0             1 
   230 truck_status_9_1
                    *              1             0             1 
   231 truck_status_9_10
                    *              1             0             1 
   232 truck_status_9_11
                    *              1             0             1 
   233 truck_status_9_2
                    *              1             0             1 
   234 truck_status_9_3
                    *              1             0             1 
   235 truck_status_9_4
                    *              1             0             1 
   236 truck_status_9_5
                    *              1             0             1 
   237 truck_status_9_6
                    *              1             0             1 
   238 truck_status_9_7
                    *              1             0             1 
   239 truck_status_9_8
                    *              1             0             1 
   240 truck_status_9_9
                    *              1             0             1 
   241 Route_10_('Liege',_'Anvers')_0
                    *             57             0               
   242 Route_11_('Liege',_'Anvers')_0
                    *              0             0               
   243 Route_12_('Liege',_'Anvers')_0
                    *             20             0               
   244 Route_13_('Liege',_'Anvers')_0
                    *              0             0               
   245 Route_14_('Liege',_'Anvers')_0
                    *              5             0               
   246 Route_15_('Liege',_'Anvers')_0
                    *            240             0               
   247 Route_16_('Liege',_'Anvers')_0
                    *             19             0               
   248 Route_17_('Liege',_'Anvers')_0
                    *              0             0               
   249 Route_18_('Liege',_'Anvers')_0
                    *            116             0               
   250 Route_19_('Liege',_'Anvers')_0
                    *              0             0               
   251 Route_1_('Liege',_'Anvers')_0
                    *              0             0               
   252 Route_20_('Liege',_'Anvers')_0
                    *              0             0               
   253 Route_2_('Liege',_'Anvers')_0
                    *              0             0               
   254 Route_3_('Liege',_'Anvers')_0
                    *              0             0               
   255 Route_4_('Liege',_'Anvers')_0
                    *              0             0               
   256 Route_5_('Liege',_'Anvers')_0
                    *              0             0               
   257 Route_6_('Liege',_'Anvers')_0
                    *              0             0               
   258 Route_7_('Liege',_'Anvers')_0
                    *              0             0               
   259 Route_8_('Liege',_'Anvers')_0
                    *             86             0               
   260 Route_9_('Liege',_'Anvers')_0
                    *              2             0               
   261 Route_10_('Liege',_'Bruxelles')_0
                    *              3             0               
   262 Route_11_('Liege',_'Bruxelles')_0
                    *              0             0               
   263 Route_12_('Liege',_'Bruxelles')_0
                    *              1             0               
   264 Route_13_('Liege',_'Bruxelles')_0
                    *              0             0               
   265 Route_14_('Liege',_'Bruxelles')_0
                    *              0             0               
   266 Route_15_('Liege',_'Bruxelles')_0
                    *              0             0               
   267 Route_16_('Liege',_'Bruxelles')_0
                    *            371             0               
   268 Route_17_('Liege',_'Bruxelles')_0
                    *              0             0               
   269 Route_18_('Liege',_'Bruxelles')_0
                    *              0             0               
   270 Route_19_('Liege',_'Bruxelles')_0
                    *              0             0               
   271 Route_1_('Liege',_'Bruxelles')_0
                    *              0             0               
   272 Route_20_('Liege',_'Bruxelles')_0
                    *              0             0               
   273 Route_2_('Liege',_'Bruxelles')_0
                    *              0             0               
   274 Route_3_('Liege',_'Bruxelles')_0
                    *              0             0               
   275 Route_4_('Liege',_'Bruxelles')_0
                    *              0             0               
   276 Route_5_('Liege',_'Bruxelles')_0
                    *              0             0               
   277 Route_6_('Liege',_'Bruxelles')_0
                    *              0             0               
   278 Route_7_('Liege',_'Bruxelles')_0
                    *              0             0               
   279 Route_8_('Liege',_'Bruxelles')_0
                    *              0             0               
   280 Route_9_('Liege',_'Bruxelles')_0
                    *              0             0               
   281 Route_10_('Liege',_'Charleroi')_0
                    *            332             0               
   282 Route_11_('Liege',_'Charleroi')_0
                    *              0             0               
   283 Route_12_('Liege',_'Charleroi')_0
                    *              0             0               
   284 Route_13_('Liege',_'Charleroi')_0
                    *              0             0               
   285 Route_14_('Liege',_'Charleroi')_0
                    *              2             0               
   286 Route_15_('Liege',_'Charleroi')_0
                    *              0             0               
   287 Route_16_('Liege',_'Charleroi')_0
                    *              0             0               
   288 Route_17_('Liege',_'Charleroi')_0
                    *              0             0               
   289 Route_18_('Liege',_'Charleroi')_0
                    *              0             0               
   290 Route_19_('Liege',_'Charleroi')_0
                    *              0             0               
   291 Route_1_('Liege',_'Charleroi')_0
                    *              0             0               
   292 Route_20_('Liege',_'Charleroi')_0
                    *              0             0               
   293 Route_2_('Liege',_'Charleroi')_0
                    *              0             0               
   294 Route_3_('Liege',_'Charleroi')_0
                    *              0             0               
   295 Route_4_('Liege',_'Charleroi')_0
                    *              0             0               
   296 Route_5_('Liege',_'Charleroi')_0
                    *              0             0               
   297 Route_6_('Liege',_'Charleroi')_0
                    *              0             0               
   298 Route_7_('Liege',_'Charleroi')_0
                    *              0             0               
   299 Route_8_('Liege',_'Charleroi')_0
                    *              3             0               
   300 Route_9_('Liege',_'Charleroi')_0
                    *            390             0               
   301 Route_10_('Liege',_'Gand')_0
                    *              0             0               
   302 Route_11_('Liege',_'Gand')_0
                    *              0             0               
   303 Route_12_('Liege',_'Gand')_0
                    *              0             0               
   304 Route_13_('Liege',_'Gand')_0
                    *              0             0               
   305 Route_14_('Liege',_'Gand')_0
                    *              0             0               
   306 Route_15_('Liege',_'Gand')_0
                    *             91             0               
   307 Route_16_('Liege',_'Gand')_0
                    *              2             0               
   308 Route_17_('Liege',_'Gand')_0
                    *              0             0               
   309 Route_18_('Liege',_'Gand')_0
                    *             19             0               
   310 Route_19_('Liege',_'Gand')_0
                    *              0             0               
   311 Route_1_('Liege',_'Gand')_0
                    *              0             0               
   312 Route_20_('Liege',_'Gand')_0
                    *              0             0               
   313 Route_2_('Liege',_'Gand')_0
                    *              0             0               
   314 Route_3_('Liege',_'Gand')_0
                    *              0             0               
   315 Route_4_('Liege',_'Gand')_0
                    *              0             0               
   316 Route_5_('Liege',_'Gand')_0
                    *              0             0               
   317 Route_6_('Liege',_'Gand')_0
                    *              0             0               
   318 Route_7_('Liege',_'Gand')_0
                    *              0             0               
   319 Route_8_('Liege',_'Gand')_0
                    *              9             0               
   320 Route_9_('Liege',_'Gand')_0
                    *              0             0               
   321 Route_10_('Liege',_'Hasselt')_0
                    *              2             0               
   322 Route_11_('Liege',_'Hasselt')_0
                    *              0             0               
   323 Route_12_('Liege',_'Hasselt')_0
                    *              0             0               
   324 Route_13_('Liege',_'Hasselt')_0
                    *              0             0               
   325 Route_14_('Liege',_'Hasselt')_0
                    *             12             0               
   326 Route_15_('Liege',_'Hasselt')_0
                    *              3             0               
   327 Route_16_('Liege',_'Hasselt')_0
                    *              2             0               
   328 Route_17_('Liege',_'Hasselt')_0
                    *              1             0               
   329 Route_18_('Liege',_'Hasselt')_0
                    *              1             0               
   330 Route_19_('Liege',_'Hasselt')_0
                    *              0             0               
   331 Route_1_('Liege',_'Hasselt')_0
                    *              0             0               
   332 Route_20_('Liege',_'Hasselt')_0
                    *              0             0               
   333 Route_2_('Liege',_'Hasselt')_0
                    *              0             0               
   334 Route_3_('Liege',_'Hasselt')_0
                    *              0             0               
   335 Route_4_('Liege',_'Hasselt')_0
                    *              0             0               
   336 Route_5_('Liege',_'Hasselt')_0
                    *              0             0               
   337 Route_6_('Liege',_'Hasselt')_0
                    *              0             0               
   338 Route_7_('Liege',_'Hasselt')_0
                    *              0             0               
   339 Route_8_('Liege',_'Hasselt')_0
                    *              0             0               
   340 Route_9_('Liege',_'Hasselt')_0
                    *              0             0               
   341 Route_10_('Anvers',_'Liege')_0
                    *              0             0               
   342 Route_11_('Anvers',_'Liege')_0
                    *            384             0               
   343 Route_12_('Anvers',_'Liege')_0
                    *            363             0               
   344 Route_13_('Anvers',_'Liege')_0
                    *            336             0               
   345 Route_14_('Anvers',_'Liege')_0
                    *            368             0               
   346 Route_15_('Anvers',_'Liege')_0
                    *              0             0               
   347 Route_16_('Anvers',_'Liege')_0
                    *              0             0               
   348 Route_17_('Anvers',_'Liege')_0
                    *            319             0               
   349 Route_18_('Anvers',_'Liege')_0
                    *             20             0               
   350 Route_19_('Anvers',_'Liege')_0
                    *              0             0               
   351 Route_1_('Anvers',_'Liege')_0
                    *              0             0               
   352 Route_20_('Anvers',_'Liege')_0
                    *              0             0               
   353 Route_2_('Anvers',_'Liege')_0
                    *              0             0               
   354 Route_3_('Anvers',_'Liege')_0
                    *              0             0               
   355 Route_4_('Anvers',_'Liege')_0
                    *              0             0               
   356 Route_5_('Anvers',_'Liege')_0
                    *              0             0               
   357 Route_6_('Anvers',_'Liege')_0
                    *              0             0               
   358 Route_7_('Anvers',_'Liege')_0
                    *              0             0               
   359 Route_8_('Anvers',_'Liege')_0
                    *             28             0               
   360 Route_9_('Anvers',_'Liege')_0
                    *              0             0               

Integer feasibility conditions:

KKT.PE: max.abs.err = 2.27e-13 on row 11
        max.rel.err = 5.92e-17 on row 11
        High quality

KKT.PB: max.abs.err = 0.00e+00 on row 0
        max.rel.err = 0.00e+00 on row 0
        High quality

End of output
